c FILE /home/rafael/Documents/HappySet/MIHS/inputs/happygen/output/graph_d_regular_k2_p0.5_v100_20241127_084006.txt
c SOURCE This is a d-regular graph formed for the happy graph colouring problem.
c DESCRIPTION It was generated using the problem generator of Rhyd Lewis
c
c GRAPH STATS
c Seed                             = 1123907002
c Number of Nodes                  = 100
c Number of colours k              = 2
c Number of pre-assignments        = 50
c Degree of all vertices           = 6
c Density                          = 0.0606061
c 
c The degrees of nodes 1 to 100, respectively, are as follows 
c [6, 6, 6, 6, 6, 6, 6, 6, 6, 6, 6, 6, 6, 6, 6, 6, 6, 6, 6, 6, 6, 6, 6, 6, 6, 6, 
c  6, 6, 6, 6, 6, 6, 6, 6, 6, 6, 6, 6, 6, 6, 6, 6, 6, 6, 6, 6, 6, 6, 6, 6, 6, 
c  6, 6, 6, 6, 6, 6, 6, 6, 6, 6, 6, 6, 6, 6, 6, 6, 6, 6, 6, 6, 6, 6, 6, 6, 6, 
c  6, 6, 6, 6, 6, 6, 6, 6, 6, 6, 6, 6, 6, 6, 6, 6, 6, 6, 6, 6, 6, 6, 6, 6] 
c  
p edge 100 300 2
e 1 3
e 1 15
e 1 43
e 1 48
e 1 83
e 1 86
e 2 11
e 2 29
e 2 59
e 2 77
e 2 80
e 2 84
e 3 44
e 3 69
e 3 74
e 3 87
e 3 97
e 4 13
e 4 27
e 4 54
e 4 63
e 4 68
e 4 96
e 5 28
e 5 40
e 5 49
e 5 60
e 5 72
e 5 78
e 6 11
e 6 34
e 6 37
e 6 51
e 6 72
e 6 85
e 7 8
e 7 24
e 7 27
e 7 45
e 7 51
e 7 86
e 8 48
e 8 69
e 8 70
e 8 89
e 8 94
e 9 35
e 9 40
e 9 59
e 9 68
e 9 81
e 9 86
e 10 23
e 10 29
e 10 38
e 10 44
e 10 73
e 10 80
e 11 12
e 11 74
e 11 89
e 11 100
e 12 19
e 12 32
e 12 51
e 12 62
e 12 64
e 13 33
e 13 55
e 13 93
e 13 94
e 13 98
e 14 44
e 14 66
e 14 67
e 14 69
e 14 91
e 14 98
e 15 43
e 15 58
e 15 59
e 15 74
e 15 94
e 16 45
e 16 51
e 16 56
e 16 64
e 16 67
e 16 100
e 17 24
e 17 32
e 17 34
e 17 43
e 17 61
e 17 75
e 18 22
e 18 34
e 18 48
e 18 58
e 18 91
e 18 99
e 19 20
e 19 22
e 19 46
e 19 92
e 19 100
e 20 24
e 20 47
e 20 55
e 20 61
e 20 77
e 21 22
e 21 26
e 21 49
e 21 61
e 21 62
e 21 73
e 22 48
e 22 72
e 22 81
e 23 57
e 23 62
e 23 66
e 23 70
e 23 92
e 24 27
e 24 50
e 24 53
e 25 55
e 25 72
e 25 77
e 25 89
e 25 96
e 25 98
e 26 31
e 26 54
e 26 57
e 26 96
e 26 99
e 27 49
e 27 50
e 27 71
e 28 31
e 28 66
e 28 84
e 28 85
e 28 94
e 29 59
e 29 65
e 29 83
e 29 86
e 30 38
e 30 44
e 30 54
e 30 75
e 30 79
e 30 81
e 31 48
e 31 70
e 31 91
e 31 97
e 32 54
e 32 62
e 32 66
e 32 87
e 33 50
e 33 64
e 33 68
e 33 88
e 33 98
e 34 35
e 34 65
e 34 80
e 35 40
e 35 42
e 35 54
e 35 90
e 36 49
e 36 53
e 36 68
e 36 74
e 36 87
e 36 96
e 37 61
e 37 74
e 37 76
e 37 91
e 37 99
e 38 41
e 38 58
e 38 78
e 38 83
e 39 44
e 39 46
e 39 47
e 39 61
e 39 63
e 39 65
e 40 46
e 40 84
e 40 85
e 41 45
e 41 50
e 41 52
e 41 80
e 41 98
e 42 65
e 42 68
e 42 93
e 42 95
e 42 96
e 43 81
e 43 84
e 43 90
e 44 60
e 45 47
e 45 81
e 45 91
e 46 47
e 46 48
e 46 64
e 47 56
e 47 62
e 49 92
e 49 95
e 50 90
e 50 94
e 51 59
e 51 79
e 52 57
e 52 76
e 52 85
e 52 86
e 52 100
e 53 65
e 53 73
e 53 79
e 53 97
e 54 67
e 55 60
e 55 64
e 55 84
e 56 58
e 56 73
e 56 92
e 56 95
e 57 68
e 57 79
e 57 100
e 58 69
e 58 82
e 59 60
e 60 67
e 60 89
e 61 67
e 62 99
e 63 69
e 63 75
e 63 88
e 63 90
e 64 89
e 65 86
e 66 76
e 66 88
e 67 98
e 69 94
e 70 75
e 70 87
e 70 100
e 71 76
e 71 78
e 71 84
e 71 87
e 71 95
e 72 73
e 72 82
e 73 90
e 74 77
e 75 80
e 75 82
e 76 82
e 76 90
e 77 88
e 77 93
e 78 82
e 78 85
e 78 97
e 79 85
e 79 88
e 80 89
e 81 93
e 82 83
e 83 91
e 83 96
e 87 99
e 88 99
e 92 93
e 92 97
e 93 95
e 95 97
n 6 1
n 8 2
n 9 1
n 12 2
n 13 1
n 14 2
n 15 1
n 16 1
n 17 2
n 20 1
n 21 2
n 22 2
n 23 1
n 28 1
n 29 1
n 33 1
n 35 1
n 41 1
n 42 1
n 44 2
n 46 2
n 48 2
n 49 2
n 50 1
n 52 1
n 54 1
n 55 1
n 57 1
n 59 1
n 63 2
n 65 1
n 68 1
n 69 2
n 73 2
n 74 1
n 75 2
n 77 1
n 78 2
n 79 1
n 82 2
n 84 1
n 86 1
n 87 1
n 89 2
n 91 2
n 93 1
n 96 1
n 97 2
n 99 1
n 100 1
